Instance0
Gap
100.00%
100.00%
75.42%
73.26%
72.19%
66.57%
62.92%
CPXPARAM_MIP_Cuts_Covers 0
Instance1
Gap
100.00%
100.00%
100.00%
99.28%
98.89%
98.83%
98.41%
CPXPARAM_MIP_Cuts_Covers 0
Instance2
Gap
100.00%
100.00%
68.57%
66.57%
64.62%
64.37%
59.80%
CPXPARAM_MIP_Cuts_Covers 0
Instance3
Gap
100.00%
100.00%
99.62%
99.49%
99.33%
99.18%
98.16%
CPXPARAM_MIP_Cuts_Covers 0
Instance4
Gap
100.00%
100.00%
100.00%
76.86%
72.59%
63.26%
62.05%
61.21%
CPXPARAM_MIP_Cuts_Covers 0
Instance5
Gap
100.00%
100.00%
100.00%
99.40%
99.04%
98.89%
97.92%
CPXPARAM_MIP_Cuts_Covers 0
Instance6
Gap
100.00%
100.00%
69.98%
65.46%
52.33%
48.50%
CPXPARAM_MIP_Cuts_Covers 0
Instance7
Gap
100.00%
100.00%
100.00%
99.99%
99.99%
99.75%
CPXPARAM_MIP_Cuts_Covers 0
Instance8
Gap
100.00%
100.00%
59.21%
53.34%
51.50%
50.76%
48.62%
CPXPARAM_MIP_Cuts_Covers 0
Instance9
Gap
100.00%
100.00%
100.00%
99.37%
99.21%
98.78%
98.58%
CPXPARAM_MIP_Cuts_Covers 0
Instance10
Gap
100.00%
100.00%
62.81%
59.89%
53.78%
46.37%
CPXPARAM_MIP_Cuts_Covers 0
Instance11
Gap
100.00%
100.00%
99.97%
99.93%
99.92%
99.79%
CPXPARAM_MIP_Cuts_Covers 0
Instance12
Gap
100.00%
100.00%
69.71%
64.56%
61.25%
57.22%
57.12%
56.90%
CPXPARAM_MIP_Cuts_Covers 0
Instance13
Gap
100.00%
100.00%
100.00%
99.35%
99.30%
99.08%
98.90%
98.24%
CPXPARAM_MIP_Cuts_Covers 0
Instance14
Gap
100.00%
100.00%
67.25%
61.80%
56.34%
47.29%
46.84%
CPXPARAM_MIP_Cuts_Covers 0
Instance15
Gap
100.00%
100.00%
99.71%
99.31%
98.60%
CPXPARAM_MIP_Cuts_Covers 0
Instance16
Gap
100.00%
100.00%
60.68%
59.49%
50.51%
44.09%
38.12%
CPXPARAM_MIP_Cuts_Covers 0
Instance17
Gap
100.00%
100.00%
100.00%
99.43%
99.32%
99.12%
99.11%
98.59%
CPXPARAM_MIP_Cuts_Covers 0
Instance18
Gap
100.00%
100.00%
57.84%
51.78%
40.55%
38.65%
36.07%
CPXPARAM_MIP_Cuts_Covers 0
Instance19
Gap
100.00%
100.00%
99.54%
99.29%
99.19%
99.07%
98.25%
CPXPARAM_MIP_Cuts_Covers 0
Instance20
Gap
100.00%
100.00%
89.26%
78.36%
73.93%
73.62%
70.56%
CPXPARAM_MIP_Cuts_Covers 0
Instance21
Gap
100.00%
100.00%
100.00%
99.52%
98.54%
98.47%
97.83%
CPXPARAM_MIP_Cuts_Covers 0
Instance22
Gap
100.00%
100.00%
88.62%
70.72%
64.20%
CPXPARAM_MIP_Cuts_Covers 0
Instance23
Gap
100.00%
100.00%
99.78%
99.46%
99.32%
99.27%
98.80%
CPXPARAM_MIP_Cuts_Covers 0
Instance24
Gap
100.00%
100.00%
84.00%
78.89%
77.00%
73.54%
72.01%
CPXPARAM_MIP_Cuts_Covers 0
Instance25
Gap
100.00%
100.00%
99.59%
99.18%
99.16%
98.84%
98.83%
98.79%
CPXPARAM_MIP_Cuts_Covers 0
Instance26
Gap
100.00%
100.00%
84.48%
68.92%
67.11%
CPXPARAM_MIP_Cuts_Covers 0
Instance27
Gap
100.00%
100.00%
99.81%
99.61%
99.54%
99.52%
99.26%
CPXPARAM_MIP_Cuts_Covers 0
Instance28
Gap
100.00%
100.00%
100.00%
69.66%
59.43%
59.06%
57.80%
CPXPARAM_MIP_Cuts_Covers 0
Instance29
Gap
100.00%
100.00%
100.00%
100.00%
100.00%
100.00%
CPXPARAM_MIP_Cuts_Covers 0
Instance30
Gap
100.00%
100.00%
69.10%
61.90%
50.20%
49.04%
CPXPARAM_MIP_Cuts_Covers 0
Instance31
Gap
100.00%
100.00%
99.75%
99.32%
98.92%
CPXPARAM_MIP_Cuts_Covers 0
Instance32
Gap
100.00%
100.00%
100.00%
69.77%
63.45%
47.97%
46.78%
44.04%
CPXPARAM_MIP_Cuts_Covers 0
Instance33
Gap
100.00%
100.00%
100.00%
98.79%
98.41%
98.29%
97.13%
CPXPARAM_MIP_Cuts_Covers 0
Instance34
Gap
100.00%
100.00%
66.38%
51.74%
50.92%
48.00%
CPXPARAM_MIP_Cuts_Covers 0
Instance35
Gap
100.00%
100.00%
99.38%
98.77%
98.56%
98.33%
97.39%
CPXPARAM_MIP_Cuts_Covers 0
Instance36
Gap
100.00%
100.00%
100.00%
85.27%
82.45%
80.02%
75.27%
72.29%
CPXPARAM_MIP_Cuts_Covers 0
Instance37
Gap
100.00%
100.00%
100.00%
100.00%
100.00%
100.00%
100.00%
100.00%
CPXPARAM_MIP_Cuts_Covers 0
Instance38
Gap
100.00%
100.00%
78.46%
58.43%
55.07%
CPXPARAM_MIP_Cuts_Covers 0
Instance39
Gap
100.00%
100.00%
99.77%
99.55%
99.48%
99.17%
CPXPARAM_MIP_Cuts_Covers 0
Instance0
Gap
100.00%
100.00%
75.42%
73.26%
72.19%
66.57%
62.92%
CPXPARAM_MIP_Cuts_Covers 0
Instance1
Gap
100.00%
100.00%
100.00%
99.28%
98.89%
98.83%
98.41%
CPXPARAM_MIP_Cuts_Covers 0
Instance2
Gap
100.00%
100.00%
68.57%
66.57%
64.62%
64.37%
59.80%
CPXPARAM_MIP_Cuts_Covers 0
Instance3
Gap
100.00%
100.00%
99.62%
99.49%
99.33%
99.18%
98.16%
CPXPARAM_MIP_Cuts_Covers 0
Instance4
Gap
100.00%
100.00%
100.00%
76.86%
72.59%
63.26%
62.05%
61.21%
CPXPARAM_MIP_Cuts_Covers 0
Instance5
Gap
100.00%
100.00%
100.00%
99.40%
99.04%
98.89%
97.92%
CPXPARAM_MIP_Cuts_Covers 0
Instance6
Gap
100.00%
100.00%
69.98%
65.46%
52.33%
48.50%
CPXPARAM_MIP_Cuts_Covers 0
Instance7
Gap
100.00%
100.00%
100.00%
99.99%
99.99%
99.75%
CPXPARAM_MIP_Cuts_Covers 0
Instance8
Gap
100.00%
100.00%
59.21%
53.34%
51.50%
50.76%
48.62%
CPXPARAM_MIP_Cuts_Covers 0
Instance9
Gap
100.00%
100.00%
100.00%
99.37%
99.21%
98.78%
98.58%
CPXPARAM_MIP_Cuts_Covers 0
Instance10
Gap
100.00%
100.00%
62.81%
59.89%
53.78%
46.37%
CPXPARAM_MIP_Cuts_Covers 0
Instance11
Gap
100.00%
100.00%
99.97%
99.93%
99.92%
99.79%
CPXPARAM_MIP_Cuts_Covers 0
Instance12
Gap
100.00%
100.00%
69.71%
64.56%
61.25%
57.22%
57.12%
56.90%
CPXPARAM_MIP_Cuts_Covers 0
Instance13
Gap
100.00%
100.00%
100.00%
99.35%
99.30%
99.08%
98.90%
98.24%
CPXPARAM_MIP_Cuts_Covers 0
Instance14
Gap
100.00%
100.00%
67.25%
61.80%
56.34%
47.29%
46.84%
CPXPARAM_MIP_Cuts_Covers 0
Instance15
Gap
100.00%
100.00%
99.71%
99.31%
98.60%
CPXPARAM_MIP_Cuts_Covers 0
Instance16
Gap
100.00%
100.00%
60.68%
59.49%
50.51%
44.09%
38.12%
CPXPARAM_MIP_Cuts_Covers 0
Instance17
Gap
100.00%
100.00%
100.00%
99.43%
99.32%
99.12%
99.11%
98.59%
CPXPARAM_MIP_Cuts_Covers 0
Instance18
Gap
100.00%
100.00%
57.84%
51.78%
40.55%
38.65%
36.07%
CPXPARAM_MIP_Cuts_Covers 0
Instance19
Gap
100.00%
100.00%
99.54%
99.29%
99.19%
99.07%
98.25%
CPXPARAM_MIP_Cuts_Covers 0
Instance20
Gap
100.00%
100.00%
89.26%
78.36%
73.93%
73.62%
70.56%
CPXPARAM_MIP_Cuts_Covers 0
Instance21
Gap
100.00%
100.00%
100.00%
99.52%
98.54%
98.47%
97.83%
CPXPARAM_MIP_Cuts_Covers 0
Instance22
Gap
100.00%
100.00%
88.62%
70.72%
64.20%
CPXPARAM_MIP_Cuts_Covers 0
Instance23
Gap
100.00%
100.00%
99.78%
99.46%
99.32%
99.27%
98.80%
CPXPARAM_MIP_Cuts_Covers 0
Instance24
Gap
100.00%
100.00%
84.00%
78.89%
77.00%
73.54%
72.01%
CPXPARAM_MIP_Cuts_Covers 0
Instance25
Gap
100.00%
100.00%
99.59%
99.18%
99.16%
98.84%
98.83%
98.79%
CPXPARAM_MIP_Cuts_Covers 0
Instance26
Gap
100.00%
100.00%
84.48%
68.92%
67.11%
CPXPARAM_MIP_Cuts_Covers 0
Instance27
Gap
100.00%
100.00%
99.81%
99.61%
99.54%
99.52%
99.26%
CPXPARAM_MIP_Cuts_Covers 0
Instance28
Gap
100.00%
100.00%
100.00%
69.66%
59.43%
59.06%
57.80%
CPXPARAM_MIP_Cuts_Covers 0
Instance29
Gap
100.00%
100.00%
100.00%
100.00%
100.00%
100.00%
CPXPARAM_MIP_Cuts_Covers 0
Instance30
Gap
100.00%
100.00%
69.10%
61.90%
50.20%
49.04%
CPXPARAM_MIP_Cuts_Covers 0
Instance31
Gap
100.00%
100.00%
99.75%
99.32%
98.92%
CPXPARAM_MIP_Cuts_Covers 0
Instance32
Gap
100.00%
100.00%
100.00%
69.77%
63.45%
47.97%
46.78%
44.04%
CPXPARAM_MIP_Cuts_Covers 0
Instance33
Gap
100.00%
100.00%
100.00%
98.79%
98.41%
98.29%
97.13%
CPXPARAM_MIP_Cuts_Covers 0
Instance34
Gap
100.00%
100.00%
66.38%
51.74%
50.92%
48.00%
CPXPARAM_MIP_Cuts_Covers 0
Instance35
Gap
100.00%
100.00%
99.38%
98.77%
98.56%
98.33%
97.39%
CPXPARAM_MIP_Cuts_Covers 0
Instance36
Gap
100.00%
100.00%
100.00%
85.27%
82.45%
80.02%
75.27%
72.29%
CPXPARAM_MIP_Cuts_Covers 0
Instance37
Gap
100.00%
100.00%
100.00%
100.00%
100.00%
100.00%
100.00%
100.00%
CPXPARAM_MIP_Cuts_Covers 0
Instance38
Gap
100.00%
100.00%
78.46%
58.43%
55.07%
CPXPARAM_MIP_Cuts_Covers 0
Instance39
Gap
100.00%
100.00%
99.77%
99.55%
99.48%
99.17%
CPXPARAM_MIP_Cuts_Covers 0
Instance0
Gap
100.00%
100.00%
75.42%
73.26%
72.19%
66.57%
62.92%
CPXPARAM_MIP_Cuts_Covers 0
Instance1
Gap
100.00%
100.00%
100.00%
99.28%
98.89%
98.83%
98.41%
CPXPARAM_MIP_Cuts_Covers 0
Instance2
Gap
100.00%
100.00%
68.57%
66.57%
64.62%
64.37%
59.80%
CPXPARAM_MIP_Cuts_Covers 0
Instance3
Gap
100.00%
100.00%
99.62%
99.49%
99.33%
99.18%
98.16%
CPXPARAM_MIP_Cuts_Covers 0
Instance4
Gap
100.00%
100.00%
100.00%
76.86%
72.59%
63.26%
62.05%
61.21%
CPXPARAM_MIP_Cuts_Covers 0
Instance5
Gap
100.00%
100.00%
100.00%
99.40%
99.04%
98.89%
97.92%
CPXPARAM_MIP_Cuts_Covers 0
Instance6
Gap
100.00%
100.00%
69.98%
65.46%
52.33%
48.50%
CPXPARAM_MIP_Cuts_Covers 0
Instance7
Gap
100.00%
100.00%
100.00%
99.99%
99.99%
99.75%
CPXPARAM_MIP_Cuts_Covers 0
Instance8
Gap
100.00%
100.00%
59.21%
53.34%
51.50%
50.76%
48.62%
CPXPARAM_MIP_Cuts_Covers 0
Instance9
Gap
100.00%
100.00%
100.00%
99.37%
99.21%
98.78%
98.58%
CPXPARAM_MIP_Cuts_Covers 0
Instance10
Gap
100.00%
100.00%
62.81%
59.89%
53.78%
46.37%
CPXPARAM_MIP_Cuts_Covers 0
Instance11
Gap
100.00%
100.00%
99.97%
99.93%
99.92%
99.79%
CPXPARAM_MIP_Cuts_Covers 0
Instance12
Gap
100.00%
100.00%
69.71%
64.56%
61.25%
57.22%
57.12%
56.90%
CPXPARAM_MIP_Cuts_Covers 0
Instance13
Gap
100.00%
100.00%
100.00%
99.35%
99.30%
99.08%
98.90%
98.24%
CPXPARAM_MIP_Cuts_Covers 0
Instance14
Gap
100.00%
100.00%
67.25%
61.80%
56.34%
47.29%
46.84%
CPXPARAM_MIP_Cuts_Covers 0
Instance15
Gap
100.00%
100.00%
99.71%
99.31%
98.60%
CPXPARAM_MIP_Cuts_Covers 0
Instance16
Gap
100.00%
100.00%
60.68%
59.49%
50.51%
44.09%
38.12%
CPXPARAM_MIP_Cuts_Covers 0
Instance17
Gap
100.00%
100.00%
100.00%
99.43%
99.32%
99.12%
99.11%
98.59%
CPXPARAM_MIP_Cuts_Covers 0
Instance18
Gap
100.00%
100.00%
57.84%
51.78%
40.55%
38.65%
36.07%
CPXPARAM_MIP_Cuts_Covers 0
Instance19
Gap
100.00%
100.00%
99.54%
99.29%
99.19%
99.07%
98.25%
CPXPARAM_MIP_Cuts_Covers 0
Instance20
Gap
100.00%
100.00%
89.26%
78.36%
73.93%
73.62%
70.56%
CPXPARAM_MIP_Cuts_Covers 0
Instance21
Gap
100.00%
100.00%
100.00%
99.52%
98.54%
98.47%
97.83%
CPXPARAM_MIP_Cuts_Covers 0
Instance22
Gap
100.00%
100.00%
88.62%
70.72%
64.20%
CPXPARAM_MIP_Cuts_Covers 0
Instance23
Gap
100.00%
100.00%
99.78%
99.46%
99.32%
99.27%
98.80%
CPXPARAM_MIP_Cuts_Covers 0
Instance24
Gap
100.00%
100.00%
84.00%
78.89%
77.00%
73.54%
72.01%
CPXPARAM_MIP_Cuts_Covers 0
Instance25
Gap
100.00%
100.00%
99.59%
99.18%
99.16%
98.84%
98.83%
98.79%
CPXPARAM_MIP_Cuts_Covers 0
Instance26
Gap
100.00%
100.00%
84.48%
68.92%
67.11%
CPXPARAM_MIP_Cuts_Covers 0
Instance27
Gap
100.00%
100.00%
99.81%
99.61%
99.54%
99.52%
99.26%
CPXPARAM_MIP_Cuts_Covers 0
Instance28
Gap
100.00%
100.00%
100.00%
69.66%
59.43%
59.06%
57.80%
CPXPARAM_MIP_Cuts_Covers 0
Instance29
Gap
100.00%
100.00%
100.00%
100.00%
100.00%
100.00%
CPXPARAM_MIP_Cuts_Covers 0
Instance30
Gap
100.00%
100.00%
69.10%
61.90%
50.20%
49.04%
CPXPARAM_MIP_Cuts_Covers 0
Instance31
Gap
100.00%
100.00%
99.75%
99.32%
98.92%
CPXPARAM_MIP_Cuts_Covers 0
Instance32
Gap
100.00%
100.00%
100.00%
69.77%
63.45%
47.97%
46.78%
44.04%
CPXPARAM_MIP_Cuts_Covers 0
Instance33
Gap
100.00%
100.00%
100.00%
98.79%
98.41%
98.29%
97.13%
CPXPARAM_MIP_Cuts_Covers 0
Instance34
Gap
100.00%
100.00%
66.38%
51.74%
50.92%
48.00%
CPXPARAM_MIP_Cuts_Covers 0
Instance35
Gap
100.00%
100.00%
99.38%
98.77%
98.56%
98.33%
97.39%
CPXPARAM_MIP_Cuts_Covers 0
Instance36
Gap
100.00%
100.00%
100.00%
85.27%
82.45%
80.02%
75.27%
72.29%
CPXPARAM_MIP_Cuts_Covers 0
Instance37
Gap
100.00%
100.00%
100.00%
100.00%
100.00%
100.00%
100.00%
100.00%
CPXPARAM_MIP_Cuts_Covers 0
Instance38
Gap
100.00%
100.00%
78.46%
58.43%
55.07%
CPXPARAM_MIP_Cuts_Covers 0
Instance39
Gap
100.00%
100.00%
99.77%
99.55%
99.48%
99.17%
CPXPARAM_MIP_Cuts_Covers 0
